c Random generated cnf formula, satisfiable: false
p cnf 10 50
-5 -9 -8 0
6 -4 -3 0
10 9 2 0
-6 1 3 0
-2 -1 3 0
3 -8 7 0
7 1 -8 0
7 -9 -6 0
-4 9 -1 0
-3 8 -5 0
7 -4 -3 0
-2 -4 -9 0
8 7 -9 0
-1 -6 -3 0
-5 -3 8 0
-5 -1 10 0
-2 -10 7 0
2 -7 -9 0
-10 7 -6 0
-8 -2 -6 0
4 3 -7 0
4 9 -3 0
6 1 5 0
-7 5 -1 0
1 4 5 0
-1 -5 -3 0
-10 -5 -6 0
2 3 8 0
3 2 10 0
-5 -4 3 0
3 4 2 0
9 -3 2 0
9 -3 -10 0
3 -2 -7 0
-9 8 -3 0
-8 10 3 0
5 7 9 0
8 -5 4 0
8 3 7 0
10 7 2 0
9 -2 -1 0
-10 -7 6 0
3 4 -5 0
9 4 -6 0
-5 -4 9 0
1 8 10 0
-2 1 5 0
9 -2 -1 0
1 -3 -10 0
4 6 -1 0
